\ENCODING=ISO-8859-1
\Problem name: IloCplex

Minimize
 obj: 10 X(0,0) + 8 X(0,1) + 5 X(0,2) + 9 X(0,3) + 7 X(1,0) + 5 X(1,1)
      + 5 X(1,2) + 3 X(1,3) + 200 X(2,0) + 10 X(2,1) + 8 X(2,2) + 7 X(2,3)
Subject To
 CAP(0): X(0,0) + X(0,1) + X(0,2) + X(0,3)  = 50
 CAP(1): X(1,0) + X(1,1) + X(1,2) + X(1,3)  = 30
 CAP(2): X(2,0) + X(2,1) + X(2,2) + X(2,3)  = 40
 DEM(0): X(0,0) + X(1,0) + X(2,0)  = 21
 DEM(1): X(0,1) + X(1,1) + X(2,1)  = 40
 DEM(2): X(0,2) + X(1,2) + X(2,2)  = 34
 DEM(3): X(0,3) + X(1,3) + X(2,3)  = 25
End
